20
0 1 0.66 0.2
0 2 0.5 0.36
0 3 0.31 0.31
0 4 0.23 0.23
0 5 0.4 0.4
0 6 0.58 0.36
0 7 0.36 0.36
0 8 0.55 0.24
0 9 0.74 0.4
0 10 0.2 0.2
0 11 0.5 0.38
0 12 0.68 0.2
0 13 0.68 0.37
0 14 0.28 0.26
0 15 0.76 0.36
0 16 0.22 0.12
0 17 0.16 0.16
0 18 0.13 0.13
0 19 0.24 0.24
1 2 0.24 0.24
1 3 0.35 0.35
1 4 0.47 0.22
1 5 0.24 0.24
1 6 0.24 0.24
1 7 0.55 0.23
1 8 0.75 0.18
1 9 0.26 0.24
1 10 0.29 0.29
1 11 0.74 0.37
1 12 0.26 0.26
1 13 0.17 0.17
1 14 0.36 0.36
1 15 0.46 0.29
1 16 0.08 0.08
1 17 0.4 0.26
1 18 0.22 0.22
1 19 0.5 0.04
2 3 0.16 0.16
2 4 0.9 0.44
2 5 0.4 0.4
2 6 0.0 0.0
2 7 0.16 0.16
2 8 0.38 0.38
2 9 0.6 0.22
2 10 0.66 0.31
2 11 0.71 0.46
2 12 0.16 0.16
2 13 0.41 0.41
2 14 0.3 0.3
2 15 0.53 0.3
2 16 0.32 0.32
2 17 0.53 0.36
2 18 0.64 0.34
2 19 0.72 0.28
3 4 0.28 0.28
3 5 0.69 0.46
3 6 0.87 0.16
3 7 0.18 0.18
3 8 0.76 0.38
3 9 0.54 0.28
3 10 0.4 0.15
3 11 0.6 0.33
3 12 0.32 0.32
3 13 0.39 0.39
3 14 0.36 0.22
3 15 0.54 0.43
3 16 0.27 0.27
3 17 0.42 0.42
3 18 0.18 0.18
3 19 0.39 0.39
4 5 0.46 0.46
4 6 0.86 0.44
4 7 0.33 0.33
4 8 0.36 0.36
4 9 0.39 0.39
4 10 0.17 0.17
4 11 0.35 0.35
4 12 0.66 0.43
4 13 0.56 0.36
4 14 0.28 0.28
4 15 0.64 0.24
4 16 0.3 0.3
4 17 0.39 0.39
4 18 0.71 0.1
4 19 0.26 0.26
5 6 0.66 0.4
5 7 0.46 0.46
5 8 0.42 0.24
5 9 0.65 0.18
5 10 0.57 0.38
5 11 0.56 0.56
5 12 0.5 0.35
5 13 0.38 0.38
5 14 0.24 0.24
5 15 0.62 0.5
5 16 0.71 0.32
5 17 0.25 0.24
5 18 0.45 0.45
5 19 0.28 0.28
6 7 0.77 0.16
6 8 0.38 0.38
6 9 0.22 0.22
6 10 0.31 0.31
6 11 0.46 0.46
6 12 0.16 0.16
6 13 0.41 0.41
6 14 0.8 0.3
6 15 0.3 0.3
6 16 0.44 0.32
6 17 0.36 0.36
6 18 0.64 0.34
6 19 0.56 0.28
7 8 0.22 0.22
7 9 0.72 0.38
7 10 0.16 0.16
7 11 0.72 0.34
7 12 0.77 0.32
7 13 0.73 0.3
7 14 0.62 0.4
7 15 0.42 0.42
7 16 0.56 0.31
7 17 0.3 0.3
7 18 0.83 0.23
7 19 0.62 0.27
8 9 0.64 0.27
8 10 0.38 0.38
8 11 0.32 0.32
8 12 0.7 0.36
8 13 0.28 0.28
8 14 0.28 0.28
8 15 0.78 0.4
8 16 0.76 0.26
8 17 0.46 0.08
8 18 0.8 0.34
8 19 0.14 0.14
9 10 0.43 0.43
9 11 0.88 0.46
9 12 0.48 0.33
9 13 0.42 0.34
9 14 0.22 0.22
9 15 0.72 0.46
9 16 0.57 0.32
9 17 0.66 0.24
9 18 0.65 0.46
9 19 0.28 0.28
10 11 0.65 0.18
10 12 0.4 0.4
10 13 0.33 0.33
10 14 0.36 0.36
10 15 0.28 0.28
10 16 0.27 0.27
10 17 0.6 0.36
10 18 0.58 0.07
10 19 0.33 0.33
11 12 0.48 0.48
11 13 0.48 0.28
11 14 0.62 0.52
11 15 0.82 0.16
11 16 0.29 0.29
11 17 0.4 0.4
11 18 0.55 0.25
11 19 0.34 0.34
12 13 0.55 0.36
12 14 0.54 0.46
12 15 0.32 0.32
12 16 0.46 0.32
12 17 0.45 0.36
12 18 0.53 0.33
12 19 0.22 0.22
13 14 0.61 0.28
13 15 0.7 0.12
13 16 0.46 0.25
13 17 0.36 0.36
13 18 0.39 0.39
13 19 0.49 0.19
14 15 0.36 0.36
14 16 0.3 0.3
14 17 0.2 0.2
14 18 0.36 0.36
14 19 0.32 0.32
15 16 0.88 0.37
15 17 0.35 0.35
15 18 0.8 0.34
15 19 0.31 0.31
16 17 0.46 0.28
16 18 0.25 0.25
16 19 0.12 0.12
17 18 0.66 0.29
17 19 0.22 0.22
18 19 0.5 0.26
